
Gurobi 11.0.3 (linux64) logging started Mon 18 Nov 2024 10:03:16 PM CST

Set parameter LogFile to value "/home/dlcole3/graph_abstraction/hierarchical_graphs/git_storage/CS1/HP_low_reserves/gurobi_logs/serial/logfile_ST15_4.log"

Gurobi 11.0.3 (linux64) logging started Mon 18 Nov 2024 10:10:34 PM CST

Set parameter LogFile to value "/home/dlcole3/graph_abstraction/hierarchical_graphs/git_storage/CS1/HP_low_reserves/gurobi_logs/serial/logfile_ST15_4.log"
Gurobi Optimizer version 11.0.3 build v11.0.3rc0 (linux64 - "Ubuntu 18.04.3 LTS")

CPU model: Intel(R) Xeon(R) CPU E5-2698 v4 @ 2.20GHz, instruction set [SSE2|AVX|AVX2]
Thread count: 40 physical cores, 80 logical processors, using up to 20 threads

Optimize a model with 29168 rows, 50688 columns and 136175 nonzeros
Model fingerprint: 0x18709be2
Variable types: 46944 continuous, 3744 integer (3744 binary)
Coefficient statistics:
  Matrix range     [6e-01, 2e+04]
  Objective range  [2e+00, 2e+04]
  Bounds range     [5e-02, 2e+05]
  RHS range        [5e-02, 7e+03]
Presolve removed 14058 rows and 38485 columns
Presolve time: 0.37s
Presolved: 15110 rows, 12203 columns, 64424 nonzeros
Variable types: 9181 continuous, 3022 integer (3022 binary)
Found heuristic solution: objective 167007.70819
Found heuristic solution: objective 158655.94926
Found heuristic solution: objective 132585.56495

Root relaxation: objective 2.126549e+04, 7805 iterations, 0.37 seconds (0.27 work units)

    Nodes    |    Current Node    |     Objective Bounds      |     Work
 Expl Unexpl |  Obj  Depth IntInf | Incumbent    BestBd   Gap | It/Node Time

     0     0 21265.4880    0   21 132585.565 21265.4880  84.0%     -    1s
H    0     0                    132575.11593 21265.4880  84.0%     -    1s
H    0     0                    76933.715716 21265.4880  72.4%     -    1s
H    0     0                    25204.439382 21265.4880  15.6%     -    1s
H    0     0                    25183.095841 21265.4880  15.6%     -    1s
     0     0 21265.4880    0   21 25183.0958 21265.4880  15.6%     -    1s
     0     0 21265.4880    0   21 25183.0958 21265.4880  15.6%     -    2s
     0     2 21265.4880    0   21 25183.0958 21265.4880  15.6%     -    2s
H   14    15                    24616.188956 21516.5543  12.6%  59.3    2s
H   22    28                    24610.319202 21516.5543  12.6%  61.5    2s
H   27    28                    23799.910029 21558.0223  9.42%  58.2    2s
H   30    35                    22551.476036 21558.0223  4.41%  63.6    2s
H   31    35                    21825.775239 21558.0223  1.23%  61.6    2s
H   85    26                    21825.775234 21559.4340  1.22%  32.3    3s
H   86    26                    21825.775225 21559.4340  1.22%  32.3    3s
H   88    26                    21825.775211 21559.4340  1.22%  31.9    3s
H  100    26                    21825.775190 21559.4340  1.22%  30.6    3s
H  213   100                    21707.866904 21585.3748  0.56%  18.0    3s
H  221    96                    21677.224777 21585.3748  0.42%  17.4    3s
H  266    69                    21672.470737 21586.4957  0.40%  15.2    3s
*  334    63              18    21672.460190 21593.6325  0.36%  13.0    3s

Cutting planes:
  Gomory: 1

Explored 451 nodes (13280 simplex iterations) in 3.87 seconds (2.80 work units)
Thread count was 20 (of 80 available processors)

Solution count 10: 21672.5 21672.5 21677.2 ... 25183.1

Optimal solution found (tolerance 3.00e-03)
Best objective 2.167246019119e+04, best bound 2.162921772659e+04, gap 0.1995%

User-callback calls 2436, time in user-callback 0.00 sec
